This is Ipopt version 3.10.0, running with linear solver ma27.

Number of nonzeros in equality constraint Jacobian...:        0
Number of nonzeros in inequality constraint Jacobian.:       48
Number of nonzeros in Lagrangian Hessian.............:        0

Total number of variables............................:        6
                     variables with only lower bounds:        0
                variables with lower and upper bounds:        6
                     variables with only upper bounds:        0
Total number of equality constraints.................:        0
Total number of inequality constraints...............:        8
        inequality constraints with only lower bounds:        0
   inequality constraints with lower and upper bounds:        0
        inequality constraints with only upper bounds:        8

iter    objective    inf_pr   inf_du lg(mu)  ||d||  lg(rg) alpha_du alpha_pr  ls
   0  7.6646479e+00 2.25e+00 1.34e+00   0.0 0.00e+00    -  0.00e+00 0.00e+00   0
   1  9.4042441e+00 1.48e+00 1.05e+01  -0.5 1.54e+00    -  4.58e-01 4.66e-01f  1
   2  9.6911415e+00 7.00e-01 8.17e+00  -0.4 9.06e-01    -  9.16e-01 5.55e-01f  1
   3  1.2241498e+01 4.89e-01 1.92e+01  -0.3 9.61e-01    -  6.53e-01 5.91e-01h  1
   4  1.3782919e+01 1.43e-01 2.82e+00  -0.5 1.02e+00    -  7.93e-01 9.54e-01h  1
   5  1.4845603e+01 4.88e-02 1.61e+00  -1.2 5.64e-01    -  9.84e-01 7.38e-01h  1
   6  1.4860728e+01 2.55e-03 1.86e+00  -1.8 7.96e-01    -  9.96e-01 7.72e-01h  1
   7  1.4642305e+01 3.18e-02 1.05e+00  -2.6 5.19e-01    -  9.99e-01 3.00e-01f  1
   8  1.4470400e+01 6.08e-03 4.81e+00  -2.2 3.33e-01    -  9.98e-01 7.31e-01h  1
   9  1.4497603e+01 3.15e-03 1.73e+00  -2.8 2.04e-01    -  1.00e+00 6.90e-01h  1
iter    objective    inf_pr   inf_du lg(mu)  ||d||  lg(rg) alpha_du alpha_pr  ls
  10  1.4560010e+01 5.72e-05 3.70e-01  -3.0 4.18e-02    -  1.00e+00 9.61e-01h  1
  11  1.4559673e+01 0.00e+00 2.97e-02  -4.7 2.49e-03    -  1.00e+00 1.00e+00h  1
  12  1.4559281e+01 2.27e-05 1.24e-03  -6.6 3.88e-04    -  1.00e+00 9.97e-01h  1
  13  1.4559885e+01 0.00e+00 2.61e-03  -8.7 2.31e-04    -  1.00e+00 1.00e+00H  1
  14  1.4558854e+01 3.15e-05 6.50e-03 -11.0 9.61e-05    -  1.00e+00 1.00e+00h  1

Number of Iterations....: 14

                                   (scaled)                 (unscaled)
Objective...............:   1.4558853740131356e+01    1.4558853740131356e+01
Dual infeasibility......:   6.5010025497458379e-03    6.5010025497458379e-03
Constraint violation....:   3.1473290633332926e-05    3.1473290633332926e-05
Complementarity.........:   1.0493159895291374e-11    1.0493159895291374e-11
Overall NLP error.......:   6.5010025497458379e-03    6.5010025497458379e-03


Number of objective function evaluations             = 17
Number of objective gradient evaluations             = 15
Number of equality constraint evaluations            = 0
Number of inequality constraint evaluations          = 17
Number of equality constraint Jacobian evaluations   = 0
Number of inequality constraint Jacobian evaluations = 15
Number of Lagrangian Hessian evaluations             = 0
Total CPU secs in IPOPT (w/o function evaluations)   =      0.024
Total CPU secs in NLP function evaluations           =    109.755

EXIT: Stopping optimization at current point as requested by user.
